603.62,62.38,71.24
553.19,68.06,77.73
571.3,65.91,75.27
538.47,69.92,79.86
571.41,65.89,75.26
648.87,58.03,66.27
668.1,56.36,64.37
592.77,63.52,72.54
633.78,59.41,67.85
620.56,60.67,69.3
619.13,60.81,69.46
680.54,55.33,63.19
550.07,68.45,78.18
557.69,67.51,77.11
613.91,61.33,70.05
687.12,54.8,62.58
583.68,64.51,73.67
642.32,58.62,66.95
676.18,55.68,63.6
633.81,59.41,67.85
